1545.0 19124.0 0.0 
1526.0 19027.0 93.0 
1536.0 18989.0 58.0 
1511.0 18804.0 173.0 
1532.0 19139.0 68.0 
1452.0 19440.0 1138.0 
1526.0 18799.0 139.0 
1504.0 18915.0 320.0 
1484.0 19000.0 667.0 
1502.0 19091.0 416.0 
1532.0 19111.0 71.0 
1530.0 18777.0 334.0 
1526.0 19027.0 93.0 
1553.0 19040.0 0.0 
1480.0 19429.0 748.0 
1525.0 19364.0 129.0 
1560.0 18895.0 58.0 
1569.0 18785.0 324.0 
1506.0 19274.0 293.0 
1480.0 19429.0 748.0 
1533.0 19025.0 55.0 
1526.0 18799.0 139.0 
1511.0 18804.0 173.0 
1474.0 19033.0 783.0 
1545.0 19124.0 0.0 
1532.0 19139.0 68.0 
1532.0 19139.0 68.0 
1558.0 18949.0 58.0 
1482.0 19066.0 773.0 
1550.0 19067.0 0.0 
1486.0 19051.0 457.0 
